set E := a1 b1, b1 c1, a1 b2, b2 c2, a2 b3, b3 c3, a2 b4, b4 c4, a3 b5,
         b5 c5, a3 b6, b6 c6, a4 b1, a4 b2, a4 b3, a5 b4, a5 b5, a5 b6,
         a6 b1, a6 b2, a6 b3, a6 b4, a7 b2, a7 b3, a7 b4, a7 b5, a7 b6;

